p cnf 31 44
-1 -77 0
-3 -78 0
-1 -79 0
-3 -79 0
-3 -77 0
-3 -80 0
-1 -81 0
-3 -81 0
-3 -83 0
-1 -84 0
-3 -84 0
-3 -86 0
-1 -87 0
-3 -87 0
-3 -88 0
-1 -89 0
-3 -89 0
-3 -90 0
-1 -92 0
-3 -92 0
-3 -93 0
-1 -94 0
-3 -94 0
-3 -95 0
-1 -97 0
-3 -97 0
-3 -99 0
-1 -100 0
-3 -100 0
-3 -101 0
-1 -102 0
-3 -102 0
-3 -103 0
-1 -104 0
-3 -104 0
-3 -105 0
-1 -107 0
-3 -107 0
-3 -108 0
-1 -109 0
-3 -109 0
-3 -110 0
-1 -111 0
-3 -111 0
